NAME          CRUDE_BLEND
ROWS
 N  PROFIT
 L  SULFUR_CAP
 G  OCTANE_MIN
 L  CRUDE_AVAIL_A
 L  CRUDE_AVAIL_B
 L  CRUDE_AVAIL_C
COLUMNS
    ARAB_LIGHT PROFIT    -102.5   SULFUR_CAP     1.8
    ARAB_LIGHT OCTANE_MIN  88.0   CRUDE_AVAIL_A  1.0
    BOMBAY_HI  PROFIT    -115.0   SULFUR_CAP     0.2
    BOMBAY_HI  OCTANE_MIN  82.0   CRUDE_AVAIL_B  1.0
    BASRAH_HVY PROFIT     -85.0   SULFUR_CAP     3.1
    BASRAH_HVY OCTANE_MIN  79.0   CRUDE_AVAIL_C  1.0
RHS
    RHS1      SULFUR_CAP   120.0
    RHS1      OCTANE_MIN  4500.0
    RHS1      CRUDE_AVAIL_A 25.0
    RHS1      CRUDE_AVAIL_B 35.0
    RHS1      CRUDE_AVAIL_C 20.0
BOUNDS
 UP BND       ARAB_LIGHT    30.0
 UP BND       BOMBAY_HI     40.0
 UP BND       BASRAH_HVY    25.0
ENDATA
